mass 1 78.1134

pair_coeff 1 1 2.3612 3.7501 0.26387 0.26387 1. 4 &
0.000000    0.000000    0.000000   -0.585 &
0.000000    2.100630    0.000000    0.195 &
1.819199   -1.050315    0.000000    0.195 &
-1.819199   -1.050315    0.000000    0.195

# Force field setup.
kspace_style pppm/molc 1e-4

